QPLIB_0698
LGQ
minimize
118 # number of variables
141 # number of constraints
0.0 # default value for linear coefficients in objective
106 # number of non-default linear coefficients in objective
1 75.07083333
2 150.1416667
3 280.2644444
4 245.2313889
5 55.05194444
6 125.1180556
7 260.2455556
8 215.2030556
9 30.02833333
10 115.1086111
11 240.2266667
12 220.2077778
13 55.05194444
14 140.1322222
15 245.2313889
16 245.2313889
17 55.05194444
18 40.03777778
19 150.1416667
20 150.1416667
21 40.03777778
22 120.1133333
23 230.2172222
24 230.2172222
25 30.02833333
26 60.05666667
27 175.1652778
28 165.1558333
29 1177.970833
30 2975.275556
31 1263.051111
32 1293.079444
33 1182.975556
34 1313.098333
35 1293.079444
36 2975.275556
37 3025.322778
38 2995.294444
39 1313.098333
40 1233.022778
41 1213.003889
42 1293.079444
43 1202.994444
44 1213.003889
45 150.1416667
46 135.1275
47 100.0944444
48 90.085
49 40.03777778
50 70.06611111
51 45.0425
64 9345.0
65 18690.0
66 34888.0
67 30527.0
68 6853.0
69 15575.0
70 32396.0
71 26789.0
72 3738.0
73 14329.0
74 29904.0
75 27412.0
76 6853.0
77 17444.0
78 30527.0
79 30527.0
80 6853.0
81 4984.0
82 18690.0
83 18690.0
84 4984.0
85 14952.0
86 28658.0
87 28658.0
88 3738.0
89 7476.0
90 21805.0
91 20559.0
92 9345.0
93 9968.0
94 19936.0
95 23674.0
96 9968.0
97 26166.0
98 23674.0
99 9968.0
100 16198.0
101 12460.0
102 26166.0
103 16198.0
104 13706.0
105 23674.0
106 12460.0
107 13706.0
108 18690.0
109 16821.0
110 12460.0
111 11214.0
112 4984.0
113 8722.0
114 5607.0
115 13972.0
116 36676.0
117 13972.0
118 13972.0
0.0 # objective constant
96 # number of quadratic terms in all constraints
127 1 1 -2.0
127 1 1 -2.0
127 1 1 -2.0
127 1 1 -2.0
127 1 1 0.02
127 1 1 0.02
127 1 1 0.02
128 1 1 -2.0
128 1 1 -2.0
128 1 1 -2.0
128 1 1 -2.0
128 1 1 0.2
128 1 1 0.2
128 1 1 0.2
129 1 1 -2.0
129 1 1 -2.0
129 1 1 -2.0
129 1 1 -2.0
129 1 1 0.1
129 1 1 0.1
129 1 1 0.1
130 1 1 -2.0
130 1 1 2.0
130 1 1 -2.0
130 1 1 -2.0
130 1 1 -2.0
130 1 1 2.0
130 1 1 2.0
131 1 1 -2.0
131 1 1 0.26
131 1 1 -2.0
131 1 1 -2.0
131 1 1 -2.0
131 1 1 0.26
131 1 1 0.26
132 1 1 -2.0
132 1 1 0.2
132 1 1 -2.0
132 1 1 -2.0
132 1 1 -2.0
132 1 1 0.2
132 1 1 0.2
133 1 1 -2.0
133 1 1 1.8
133 1 1 1.8
133 1 1 -2.0
133 1 1 -2.0
133 1 1 -2.0
133 1 1 1.8
134 1 1 -2.0
134 1 1 0.02
134 1 1 0.02
134 1 1 -2.0
134 1 1 -2.0
134 1 1 -2.0
134 1 1 0.02
135 1 1 -2.0
135 1 1 2.0
135 1 1 2.0
135 1 1 -2.0
135 1 1 -2.0
135 1 1 -2.0
135 1 1 2.0
136 1 1 -2.0
136 1 1 0.6
136 1 1 0.6
136 1 1 0.6
136 1 1 -2.0
136 1 1 -2.0
136 1 1 -2.0
137 1 1 -2.0
137 1 1 1.6
137 1 1 1.6
137 1 1 1.6
137 1 1 -2.0
137 1 1 -2.0
137 1 1 -2.0
138 1 1 -2.0
138 1 1 1.4
138 1 1 1.4
138 1 1 1.4
138 1 1 -2.0
138 1 1 -2.0
138 1 1 -2.0
139 1 1 2.0
139 1 1 2.0
139 1 1 2.0
139 1 1 2.0
140 1 1 2.0
140 1 1 2.0
140 1 1 2.0
140 1 1 2.0
141 1 1 2.0
141 1 1 2.0
141 1 1 2.0
141 1 1 2.0
489 # number of linear terms in all constraints
1 1 -1.0
1 2 -1.0
1 3 -1.0
1 4 -1.0
1 45 -1.0
2 5 -1.0
2 6 -1.0
2 7 -1.0
2 8 -1.0
2 46 -1.0
3 9 -1.0
3 10 -1.0
3 11 -1.0
3 12 -1.0
3 47 -1.0
4 13 -1.0
4 14 -1.0
4 15 -1.0
4 16 -1.0
4 48 -1.0
5 17 -1.0
5 18 -1.0
5 19 -1.0
5 20 -1.0
5 49 -1.0
6 21 -1.0
6 22 -1.0
6 23 -1.0
6 24 -1.0
6 50 -1.0
7 25 -1.0
7 26 -1.0
7 27 -1.0
7 28 -1.0
7 51 -1.0
8 1 1.0
8 2 1.0
8 3 1.0
8 4 1.0
8 45 1.0
9 5 1.0
9 6 1.0
9 7 1.0
9 8 1.0
9 46 1.0
10 9 1.0
10 10 1.0
10 11 1.0
10 12 1.0
10 47 1.0
11 13 1.0
11 14 1.0
11 15 1.0
11 16 1.0
11 48 1.0
12 17 1.0
12 18 1.0
12 19 1.0
12 20 1.0
12 49 1.0
13 21 1.0
13 22 1.0
13 23 1.0
13 24 1.0
13 50 1.0
14 25 1.0
14 26 1.0
14 27 1.0
14 28 1.0
14 51 1.0
15 29 1.0
15 33 1.0
15 34 1.0
15 35 1.0
15 115 -300.5
16 30 1.0
16 36 1.0
16 37 1.0
16 38 1.0
16 116 -300.5
17 31 1.0
17 39 1.0
17 40 1.0
17 41 1.0
17 117 -300.5
18 32 1.0
18 42 1.0
18 43 1.0
18 44 1.0
18 118 -300.5
19 29 -1.0
19 30 -1.0
19 31 -1.0
19 32 -1.0
19 45 -1.0
19 46 -1.0
19 47 -1.0
19 48 -1.0
19 49 -1.0
19 50 -1.0
19 51 -1.0
20 29 1.0
20 30 1.0
20 31 1.0
20 32 1.0
20 45 1.0
20 46 1.0
20 47 1.0
20 48 1.0
20 49 1.0
20 50 1.0
20 51 1.0
21 1 1.0
21 5 1.0
21 9 1.0
21 13 1.0
21 17 1.0
21 21 1.0
21 25 1.0
21 29 -1.0
21 33 -1.0
21 34 -1.0
21 35 -1.0
21 36 1.0
21 39 1.0
21 42 1.0
22 2 1.0
22 6 1.0
22 10 1.0
22 14 1.0
22 18 1.0
22 22 1.0
22 26 1.0
22 30 -1.0
22 33 1.0
22 36 -1.0
22 37 -1.0
22 38 -1.0
22 40 1.0
22 43 1.0
23 3 1.0
23 7 1.0
23 11 1.0
23 15 1.0
23 19 1.0
23 23 1.0
23 27 1.0
23 31 -1.0
23 34 1.0
23 37 1.0
23 39 -1.0
23 40 -1.0
23 41 -1.0
23 44 1.0
24 4 1.0
24 8 1.0
24 12 1.0
24 16 1.0
24 20 1.0
24 24 1.0
24 28 1.0
24 32 -1.0
24 35 1.0
24 38 1.0
24 41 1.0
24 42 -1.0
24 43 -1.0
24 44 -1.0
25 1 1.0
25 64 -0.2
26 2 1.0
26 65 -0.2
27 3 1.0
27 66 -0.2
28 4 1.0
28 67 -0.2
29 5 1.0
29 68 -0.2
30 6 1.0
30 69 -0.2
31 7 1.0
31 70 -0.2
32 8 1.0
32 71 -0.2
33 9 1.0
33 72 -0.2
34 10 1.0
34 73 -0.2
35 11 1.0
35 74 -0.2
36 12 1.0
36 75 -0.2
37 13 1.0
37 76 -0.2
38 14 1.0
38 77 -0.2
39 15 1.0
39 78 -0.2
40 16 1.0
40 79 -0.2
41 17 1.0
41 80 -0.2
42 18 1.0
42 81 -0.2
43 19 1.0
43 82 -0.2
44 20 1.0
44 83 -0.2
45 21 1.0
45 84 -0.2
46 22 1.0
46 85 -0.2
47 23 1.0
47 86 -0.2
48 24 1.0
48 87 -0.2
49 25 1.0
49 88 -0.2
50 26 1.0
50 89 -0.2
51 27 1.0
51 90 -0.2
52 28 1.0
52 91 -0.2
53 1 1.0
53 64 -20.0
54 2 1.0
54 65 -20.0
55 3 1.0
55 66 -20.0
56 4 1.0
56 67 -20.0
57 5 1.0
57 68 -50.0
58 6 1.0
58 69 -50.0
59 7 1.0
59 70 -50.0
60 8 1.0
60 71 -50.0
61 9 1.0
61 72 -47.5
62 10 1.0
62 73 -47.5
63 11 1.0
63 74 -47.5
64 12 1.0
64 75 -47.5
65 13 1.0
65 76 -28.0
66 14 1.0
66 77 -28.0
67 15 1.0
67 78 -28.0
68 16 1.0
68 79 -28.0
69 17 1.0
69 80 -100.0
70 18 1.0
70 81 -100.0
71 19 1.0
71 82 -100.0
72 20 1.0
72 83 -100.0
73 21 1.0
73 84 -30.0
74 22 1.0
74 85 -30.0
75 23 1.0
75 86 -30.0
76 24 1.0
76 87 -30.0
77 25 1.0
77 88 -25.0
78 26 1.0
78 89 -25.0
79 27 1.0
79 90 -25.0
80 28 1.0
80 91 -25.0
81 29 1.0
81 92 -0.2
82 30 1.0
82 93 -0.2
83 31 1.0
83 94 -0.2
84 32 1.0
84 95 -0.2
85 29 1.0
85 92 -300.5
86 30 1.0
86 93 -300.5
87 31 1.0
87 94 -300.5
88 32 1.0
88 95 -300.5
89 45 1.0
89 108 -0.2
90 46 1.0
90 109 -0.2
91 47 1.0
91 110 -0.2
92 48 1.0
92 111 -0.2
93 49 1.0
93 112 -0.2
94 50 1.0
94 113 -0.2
95 51 1.0
95 114 -0.2
96 45 1.0
96 108 -20.0
97 46 1.0
97 109 -50.0
98 47 1.0
98 110 -47.5
99 48 1.0
99 111 -28.0
100 49 1.0
100 112 -100.0
101 50 1.0
101 113 -30.0
102 51 1.0
102 114 -25.0
103 36 1.0
103 99 -0.2
104 39 1.0
104 102 -0.2
105 42 1.0
105 105 -0.2
106 33 1.0
106 96 -0.2
107 40 1.0
107 103 -0.2
108 43 1.0
108 106 -0.2
109 34 1.0
109 97 -0.2
110 37 1.0
110 100 -0.2
111 44 1.0
111 107 -0.2
112 35 1.0
112 98 -0.2
113 38 1.0
113 101 -0.2
114 41 1.0
114 104 -0.2
115 36 1.0
115 99 -300.5
116 39 1.0
116 102 -300.5
117 42 1.0
117 105 -300.5
118 33 1.0
118 96 -300.5
119 40 1.0
119 103 -300.5
120 43 1.0
120 106 -300.5
121 34 1.0
121 97 -300.5
122 37 1.0
122 100 -300.5
123 44 1.0
123 107 -300.5
124 35 1.0
124 98 -300.5
125 38 1.0
125 101 -300.5
126 41 1.0
126 104 -300.5
127 1 1.0
127 5 8.0
127 9 4.0
127 13 12.0
127 17 5.0
127 21 0.5
127 25 10.0
128 1 50.0
128 5 175.0
128 9 8.0
128 13 100.0
128 17 70.0
128 21 10.0
128 25 5.0
129 1 25.0
129 5 100.0
129 9 5.0
129 13 20.0
129 17 12.5
129 21 2.5
129 25 7.5
130 2 100.0
130 6 800.0
130 10 400.0
130 14 1200.0
130 18 500.0
130 22 50.0
130 26 1000.0
131 2 65.0
131 6 227.5
131 10 10.4
131 14 130.0
131 18 91.0
131 22 13.0
131 26 6.5
132 2 50.0
132 6 200.0
132 10 10.0
132 14 40.0
132 18 25.0
132 22 5.0
132 26 15.0
133 3 90.0
133 7 720.0
133 11 360.0
133 15 1080.0
133 19 450.0
133 23 45.0
133 27 900.0
134 3 5.0
134 7 17.5
134 11 0.8
134 15 10.0
134 19 7.0
134 23 1.0
134 27 0.5
135 3 500.0
135 7 2000.0
135 11 100.0
135 15 400.0
135 19 250.0
135 23 50.0
135 27 150.0
136 4 30.0
136 8 240.0
136 12 120.0
136 16 360.0
136 20 150.0
136 24 15.0
136 28 300.0
137 4 400.0
137 8 1400.0
137 12 64.0
137 16 800.0
137 20 560.0
137 24 80.0
137 28 40.0
138 4 350.0
138 8 1400.0
138 12 70.0
138 16 280.0
138 20 175.0
138 24 35.0
138 28 105.0
139 29 -5.0
139 30 -5.0
139 31 -5.0
139 32 -5.0
139 45 95.0
139 46 795.0
139 47 395.0
139 48 1195.0
139 49 495.0
139 50 45.0
139 51 995.0
140 29 -5.0
140 30 -5.0
140 31 -5.0
140 32 -5.0
140 45 495.0
140 46 1745.0
140 47 75.0
140 48 995.0
140 49 695.0
140 50 95.0
140 51 45.0
141 29 -10.0
141 30 -10.0
141 31 -10.0
141 32 -10.0
141 45 490.0
141 46 1990.0
141 47 90.0
141 48 390.0
141 49 240.0
141 50 40.0
141 51 140.0
1.79769313486232E+308 # value for infinity
0.0 # default left-hand-side value
74 # number of non-default left-hand-sides
1 -1.79769313486232E+308
2 -1.79769313486232E+308
3 -1.79769313486232E+308
4 -1.79769313486232E+308
5 -1.79769313486232E+308
6 -1.79769313486232E+308
7 -1.79769313486232E+308
8 -1.79769313486232E+308
9 -1.79769313486232E+308
10 -1.79769313486232E+308
11 -1.79769313486232E+308
12 -1.79769313486232E+308
13 -1.79769313486232E+308
14 -1.79769313486232E+308
15 -1.79769313486232E+308
16 -1.79769313486232E+308
17 -1.79769313486232E+308
18 -1.79769313486232E+308
19 -1.79769313486232E+308
20 -1.79769313486232E+308
53 -1.79769313486232E+308
54 -1.79769313486232E+308
55 -1.79769313486232E+308
56 -1.79769313486232E+308
57 -1.79769313486232E+308
58 -1.79769313486232E+308
59 -1.79769313486232E+308
60 -1.79769313486232E+308
61 -1.79769313486232E+308
62 -1.79769313486232E+308
63 -1.79769313486232E+308
64 -1.79769313486232E+308
65 -1.79769313486232E+308
66 -1.79769313486232E+308
67 -1.79769313486232E+308
68 -1.79769313486232E+308
69 -1.79769313486232E+308
70 -1.79769313486232E+308
71 -1.79769313486232E+308
72 -1.79769313486232E+308
73 -1.79769313486232E+308
74 -1.79769313486232E+308
75 -1.79769313486232E+308
76 -1.79769313486232E+308
77 -1.79769313486232E+308
78 -1.79769313486232E+308
79 -1.79769313486232E+308
80 -1.79769313486232E+308
85 -1.79769313486232E+308
86 -1.79769313486232E+308
87 -1.79769313486232E+308
88 -1.79769313486232E+308
96 -1.79769313486232E+308
97 -1.79769313486232E+308
98 -1.79769313486232E+308
99 -1.79769313486232E+308
100 -1.79769313486232E+308
101 -1.79769313486232E+308
102 -1.79769313486232E+308
115 -1.79769313486232E+308
116 -1.79769313486232E+308
117 -1.79769313486232E+308
118 -1.79769313486232E+308
119 -1.79769313486232E+308
120 -1.79769313486232E+308
121 -1.79769313486232E+308
122 -1.79769313486232E+308
123 -1.79769313486232E+308
124 -1.79769313486232E+308
125 -1.79769313486232E+308
126 -1.79769313486232E+308
139 -1.79769313486232E+308
140 -1.79769313486232E+308
141 -1.79769313486232E+308
0.0 # default right-hand-side value
67 # number of non-default right-hand-sides
1 -20.0
2 -50.0
3 -47.5
4 -28.0
5 -100.0
6 -30.0
7 -25.0
8 20.0
9 50.0
10 47.5
11 28.0
12 100.0
13 30.0
14 25.0
19 -300.5
20 300.5
25 1.79769313486232E+308
26 1.79769313486232E+308
27 1.79769313486232E+308
28 1.79769313486232E+308
29 1.79769313486232E+308
30 1.79769313486232E+308
31 1.79769313486232E+308
32 1.79769313486232E+308
33 1.79769313486232E+308
34 1.79769313486232E+308
35 1.79769313486232E+308
36 1.79769313486232E+308
37 1.79769313486232E+308
38 1.79769313486232E+308
39 1.79769313486232E+308
40 1.79769313486232E+308
41 1.79769313486232E+308
42 1.79769313486232E+308
43 1.79769313486232E+308
44 1.79769313486232E+308
45 1.79769313486232E+308
46 1.79769313486232E+308
47 1.79769313486232E+308
48 1.79769313486232E+308
49 1.79769313486232E+308
50 1.79769313486232E+308
51 1.79769313486232E+308
52 1.79769313486232E+308
81 1.79769313486232E+308
82 1.79769313486232E+308
83 1.79769313486232E+308
84 1.79769313486232E+308
89 1.79769313486232E+308
90 1.79769313486232E+308
91 1.79769313486232E+308
92 1.79769313486232E+308
93 1.79769313486232E+308
94 1.79769313486232E+308
95 1.79769313486232E+308
103 1.79769313486232E+308
104 1.79769313486232E+308
105 1.79769313486232E+308
106 1.79769313486232E+308
107 1.79769313486232E+308
108 1.79769313486232E+308
109 1.79769313486232E+308
110 1.79769313486232E+308
111 1.79769313486232E+308
112 1.79769313486232E+308
113 1.79769313486232E+308
114 1.79769313486232E+308
0.0 # default variable lower bound value
0 # number of non-default variable lower bounds
1.0 # default variable upper bound value
63 # number of non-default variable upper bounds
1 20.0
2 20.0
3 20.0
4 20.0
5 50.0
6 50.0
7 50.0
8 50.0
9 47.5
10 47.5
11 47.5
12 47.5
13 28.0
14 28.0
15 28.0
16 28.0
17 100.0
18 100.0
19 100.0
20 100.0
21 30.0
22 30.0
23 30.0
24 30.0
25 25.0
26 25.0
27 25.0
28 25.0
29 300.5
30 300.5
31 300.5
32 300.5
33 300.5
34 300.5
35 300.5
36 300.5
37 300.5
38 300.5
39 300.5
40 300.5
41 300.5
42 300.5
43 300.5
44 300.5
45 20.0
46 50.0
47 47.5
48 28.0
49 100.0
50 30.0
51 25.0
52 12.0
53 175.0
54 100.0
55 1200.0
56 227.5
57 200.0
58 1080.0
59 17.5
60 2000.0
61 360.0
62 1400.0
63 1400.0
0 # default variable type
55 # number of non-default variable types
64 1
65 1
66 1
67 1
68 1
69 1
70 1
71 1
72 1
73 1
74 1
75 1
76 1
77 1
78 1
79 1
80 1
81 1
82 1
83 1
84 1
85 1
86 1
87 1
88 1
89 1
90 1
91 1
92 1
93 1
94 1
95 1
96 1
97 1
98 1
99 1
100 1
101 1
102 1
103 1
104 1
105 1
106 1
107 1
108 1
109 1
110 1
111 1
112 1
113 1
114 1
115 1
116 1
117 1
118 1
0.0 # default variable primal value in starting point
0 # number of non-default variable primal values in starting point
0.0 # default constraint dual value in starting point
0 # number of non-default constraint dual values in starting point
0.0 # default variable bound dual value in starting point
0 # number of non-default variable bound dual values in starting point
0 # number of non-default variable names
0 # number of non-default constraint names
